c Reduced graph for GEOM40a generated by Cyril Grelier
p edge 17 54
e 1 2
e 1 9
e 1 10
e 1 13
e 1 14
e 1 16
e 1 17
e 2 10
e 2 16
e 2 17
e 3 4
e 3 5
e 3 6
e 3 7
e 3 8
e 3 11
e 3 15
e 4 6
e 4 7
e 4 8
e 4 11
e 4 15
e 5 12
e 5 15
e 6 7
e 6 8
e 6 11
e 6 15
e 7 8
e 7 11
e 7 15
e 8 11
e 8 15
e 9 10
e 9 12
e 9 13
e 9 14
e 9 16
e 9 17
e 10 12
e 10 13
e 10 14
e 10 16
e 10 17
e 12 13
e 12 14
e 12 16
e 12 17
e 13 14
e 13 16
e 13 17
e 14 16
e 14 17
e 16 17
